benchmark/results/graph__10-1000-0.10-03_4/graph__10-1000-0.10-03_4_QuintonOs_Benders_primal_sub.lp
\ This file has been generated by DOcplex
\ ENCODING=ISO-8859-1
\Problem name: Quinton Bounded Benders_primal_sub

Maximize
 obj: tau
Subject To
 c1: tau <= 0.000827814570
 c2: y_a0_proc_0 + y_a0_proc_2 - tau = 0
 c3: y_a0_proc_0 <= 0
 c4: y_a0_proc_2 <= 1
 c5: tau <= 0.000931098696
 c6: y_a1_proc_0 + y_a1_proc_1 + y_a1_proc_2 - tau = 0
 c7: y_a1_proc_0 <= 0
 c8: y_a1_proc_1 <= 1
 c9: y_a1_proc_2 <= 0
 c10: tau <= 0.000831946755
 c11: y_a2_proc_0 + y_a2_proc_1 + y_a2_proc_2 - tau = 0
 c12: y_a2_proc_0 <= 0
 c13: y_a2_proc_1 <= 1
 c14: y_a2_proc_2 <= 0
 c15: tau <= 0.001408450704
 c16: y_a3_proc_0 + y_a3_proc_2 - tau = 0
 c17: y_a3_proc_0 <= 0
 c18: y_a3_proc_2 <= 1
 c19: tau <= 0.001490312966
 c20: y_a4_proc_0 - tau = 0
 c21: y_a4_proc_0 <= 1
 c22: tau <= 0.001114827202
 c23: y_a5_proc_1 + y_a5_proc_2 - tau = 0
 c24: y_a5_proc_1 <= 0
 c25: y_a5_proc_2 <= 1
 c26: tau <= 0.000867302689
 c27: y_a6_proc_0 - tau = 0
 c28: y_a6_proc_0 <= 1
 c29: tau <= 0.001555209953
 c30: y_a7_proc_0 + y_a7_proc_1 + y_a7_proc_2 - tau = 0
 c31: y_a7_proc_0 <= 1
 c32: y_a7_proc_1 <= 0
 c33: y_a7_proc_2 <= 0
 c34: tau <= 0.001869158879
 c35: y_a8_proc_0 + y_a8_proc_1 - tau = 0
 c36: y_a8_proc_0 <= 0
 c37: y_a8_proc_1 <= 1
 c38: tau <= 0.001342281879
 c39: y_a9_proc_0 + y_a9_proc_2 - tau = 0
 c40: y_a9_proc_0 <= 1
 c41: y_a9_proc_2 <= 0
 c42: u_a0 - u_a1 - 1015 y_a1_proc_0 - 1074 y_a1_proc_1 - 735 y_a1_proc_2 >= -2
 c43: u_a2 - u_a1 - 1015 y_a1_proc_0 - 1074 y_a1_proc_1 - 735 y_a1_proc_2 >= -1
 c44: u_a2 - u_a3 - 1184 y_a3_proc_0 - 710 y_a3_proc_2 >= 0
 c45: u_a4 - u_a2 - 761 y_a2_proc_0 - 1202 y_a2_proc_1 - 886 y_a2_proc_2 >= 0
 c46: u_a3 - u_a5 - 1117 y_a5_proc_1 - 897 y_a5_proc_2 >= 0
 c47: u_a5 - u_a6 - 1153 y_a6_proc_0 >= 0
 c48: u_a7 - u_a2 - 761 y_a2_proc_0 - 1202 y_a2_proc_1 - 886 y_a2_proc_2 >= -1
 c49: u_a8 - u_a2 - 761 y_a2_proc_0 - 1202 y_a2_proc_1 - 886 y_a2_proc_2 >= -1
 c50: u_a6 - u_a9 - 745 y_a9_proc_0 - 728 y_a9_proc_2 >= -1
 c51: u_a5 - u_a0 - 975 y_a0_proc_0 - 1208 y_a0_proc_2 >= 0
 c52: u_a9 - u_a7 - 643 y_a7_proc_0 - 1252 y_a7_proc_1 - 1203 y_a7_proc_2 >= 0
 c53: u_a1 - u_a8 - 1119 y_a8_proc_0 - 535 y_a8_proc_1 >= 0
 c54: u_a8 - u_a6 - 1153 y_a6_proc_0 >= 0
 c55: - 1015 y_a1_proc_0 - 1074 y_a1_proc_1 - 735 y_a1_proc_2 >= -1
 c56: u_a8 - u_a4 - 671 y_a4_proc_0 >= -1
 c57: u_a7 - u_a4 - 671 y_a4_proc_0 >= -1
 c58: u_a9 - u_a8 - 1119 y_a8_proc_0 - 535 y_a8_proc_1 >= 0
 c59: u_a1 - u_a0 - 1208 y_a0_proc_2 >= -1265
 c60: u_a1 - u_a0 - 975 y_a0_proc_0 >= -2517
 c61: u_a0 - u_a1 - 735 y_a1_proc_2 >= -1240
 c62: u_a0 - u_a1 - 1015 y_a1_proc_0 >= -2492
 c63: u_a2 - u_a0 - 1208 y_a0_proc_2 >= -1240
 c64: u_a2 - u_a0 - 975 y_a0_proc_0 >= -2492
 c65: u_a0 - u_a2 - 886 y_a2_proc_2 >= -1265
 c66: u_a0 - u_a2 - 761 y_a2_proc_0 >= -2517
 c67: u_a3 - u_a0 - 1208 y_a0_proc_2 >= 0
 c68: u_a3 - u_a0 - 975 y_a0_proc_0 >= -2504
 c69: u_a0 - u_a3 - 710 y_a3_proc_2 >= -1
 c70: u_a0 - u_a3 - 1184 y_a3_proc_0 >= -2505
 c71: u_a4 - u_a0 - 975 y_a0_proc_0 >= -1240
 c72: u_a0 - u_a4 - 671 y_a4_proc_0 >= -1265
 c73: u_a5 - u_a0 - 1208 y_a0_proc_2 >= 0
 c74: u_a0 - u_a5 - 897 y_a5_proc_2 >= -1
 c75: u_a6 - u_a0 - 975 y_a0_proc_0 >= -1240
 c76: u_a0 - u_a6 - 1153 y_a6_proc_0 >= -1265
 c77: u_a7 - u_a0 - 1208 y_a0_proc_2 >= -1240
 c78: u_a7 - u_a0 - 975 y_a0_proc_0 >= -1240
 c79: u_a0 - u_a7 - 1203 y_a7_proc_2 >= -1265
 c80: u_a0 - u_a7 - 643 y_a7_proc_0 >= -1265
 c81: u_a8 - u_a0 - 975 y_a0_proc_0 >= -2492
 c82: u_a0 - u_a8 - 1119 y_a8_proc_0 >= -2517
 c83: u_a9 - u_a0 - 1208 y_a0_proc_2 >= -1240
 c84: u_a9 - u_a0 - 975 y_a0_proc_0 >= -1240
 c85: u_a0 - u_a9 - 728 y_a9_proc_2 >= -1265
 c86: u_a0 - u_a9 - 745 y_a9_proc_0 >= -1265
 c87: u_a2 - u_a1 - 735 y_a1_proc_2 >= -2505
 c88: u_a2 - u_a1 - 1015 y_a1_proc_0 >= -2505
 c89: u_a2 - u_a1 - 1074 y_a1_proc_1 >= -1
 c90: u_a1 - u_a2 - 886 y_a2_proc_2 >= -2504
 c91: u_a1 - u_a2 - 761 y_a2_proc_0 >= -2504
 c92: u_a1 - u_a2 - 1202 y_a2_proc_1 >= 0
 c93: u_a3 - u_a1 - 735 y_a1_proc_2 >= -1265
 c94: u_a3 - u_a1 - 1015 y_a1_proc_0 >= -2517
 c95: u_a1 - u_a3 - 710 y_a3_proc_2 >= -1240
 c96: u_a1 - u_a3 - 1184 y_a3_proc_0 >= -2492
 c97: u_a4 - u_a1 - 1015 y_a1_proc_0 >= -1240
 c98: u_a1 - u_a4 - 671 y_a4_proc_0 >= -1265
 c99: u_a5 - u_a1 - 735 y_a1_proc_2 >= -1240
 c100: u_a5 - u_a1 - 1074 y_a1_proc_1 >= -1240
 c101: u_a1 - u_a5 - 897 y_a5_proc_2 >= -1265
 c102: u_a1 - u_a5 - 1117 y_a5_proc_1 >= -1265
 c103: u_a6 - u_a1 - 1015 y_a1_proc_0 >= -1265
 c104: u_a1 - u_a6 - 1153 y_a6_proc_0 >= -1240
 c105: u_a7 - u_a1 - 735 y_a1_proc_2 >= -2517
 c106: u_a7 - u_a1 - 1015 y_a1_proc_0 >= -1265
 c107: u_a7 - u_a1 - 1074 y_a1_proc_1 >= -1265
 c108: u_a1 - u_a7 - 1203 y_a7_proc_2 >= -2492
 c109: u_a1 - u_a7 - 643 y_a7_proc_0 >= -1240
 c110: u_a1 - u_a7 - 1252 y_a7_proc_1 >= -1240
 c111: u_a8 - u_a1 - 1015 y_a1_proc_0 >= -2505
 c112: u_a8 - u_a1 - 1074 y_a1_proc_1 >= -1
 c113: u_a1 - u_a8 - 1119 y_a8_proc_0 >= -2504
 c114: u_a1 - u_a8 - 535 y_a8_proc_1 >= 0
 c115: u_a9 - u_a1 - 735 y_a1_proc_2 >= -2492
 c116: u_a9 - u_a1 - 1015 y_a1_proc_0 >= -1240
 c117: u_a1 - u_a9 - 728 y_a9_proc_2 >= -2517
 c118: u_a1 - u_a9 - 745 y_a9_proc_0 >= -1265
 c119: u_a3 - u_a2 - 886 y_a2_proc_2 >= -1240
 c120: u_a3 - u_a2 - 761 y_a2_proc_0 >= -2492
 c121: u_a2 - u_a3 - 710 y_a3_proc_2 >= -1265
 c122: u_a2 - u_a3 - 1184 y_a3_proc_0 >= -2517
 c123: u_a4 - u_a2 - 761 y_a2_proc_0 >= -1265
 c124: u_a2 - u_a4 - 671 y_a4_proc_0 >= -1240
 c125: u_a5 - u_a2 - 886 y_a2_proc_2 >= -1265
 c126: u_a5 - u_a2 - 1202 y_a2_proc_1 >= -1265
 c127: u_a2 - u_a5 - 897 y_a5_proc_2 >= -1240
 c128: u_a2 - u_a5 - 1117 y_a5_proc_1 >= -1240
 c129: u_a6 - u_a2 - 761 y_a2_proc_0 >= -1240
 c130: u_a2 - u_a6 - 1153 y_a6_proc_0 >= -1265
 c131: u_a7 - u_a2 - 886 y_a2_proc_2 >= -2492
 c132: u_a7 - u_a2 - 761 y_a2_proc_0 >= -1240
 c133: u_a7 - u_a2 - 1202 y_a2_proc_1 >= -1240
 c134: u_a2 - u_a7 - 1203 y_a7_proc_2 >= -2517
 c135: u_a2 - u_a7 - 643 y_a7_proc_0 >= -1265
 c136: u_a2 - u_a7 - 1252 y_a7_proc_1 >= -1265
 c137: u_a8 - u_a2 - 761 y_a2_proc_0 >= -2505
 c138: u_a8 - u_a2 - 1202 y_a2_proc_1 >= -1
 c139: u_a2 - u_a8 - 1119 y_a8_proc_0 >= -2504
 c140: u_a2 - u_a8 - 535 y_a8_proc_1 >= 0
 c141: u_a9 - u_a2 - 886 y_a2_proc_2 >= -2492
 c142: u_a9 - u_a2 - 761 y_a2_proc_0 >= -1240
 c143: u_a2 - u_a9 - 728 y_a9_proc_2 >= -2517
 c144: u_a2 - u_a9 - 745 y_a9_proc_0 >= -1265
 c145: u_a4 - u_a3 - 1184 y_a3_proc_0 >= -1240
 c146: u_a3 - u_a4 - 671 y_a4_proc_0 >= -1265
 c147: u_a5 - u_a3 - 710 y_a3_proc_2 >= -1
 c148: u_a3 - u_a5 - 897 y_a5_proc_2 >= 0
 c149: u_a6 - u_a3 - 1184 y_a3_proc_0 >= -1240
 c150: u_a3 - u_a6 - 1153 y_a6_proc_0 >= -1265
 c151: u_a7 - u_a3 - 710 y_a3_proc_2 >= -1240
 c152: u_a7 - u_a3 - 1184 y_a3_proc_0 >= -1240
 c153: u_a3 - u_a7 - 1203 y_a7_proc_2 >= -1265
 c154: u_a3 - u_a7 - 643 y_a7_proc_0 >= -1265
 c155: u_a8 - u_a3 - 1184 y_a3_proc_0 >= -2492
 c156: u_a3 - u_a8 - 1119 y_a8_proc_0 >= -2517
 c157: u_a9 - u_a3 - 710 y_a3_proc_2 >= -1265
 c158: u_a9 - u_a3 - 1184 y_a3_proc_0 >= -1265
 c159: u_a3 - u_a9 - 728 y_a9_proc_2 >= -1240
 c160: u_a3 - u_a9 - 745 y_a9_proc_0 >= -1240
 c161: u_a6 - u_a4 - 671 y_a4_proc_0 >= -2
 c162: u_a4 - u_a6 - 1153 y_a6_proc_0 >= 1
 c163: u_a7 - u_a4 - 671 y_a4_proc_0 >= -1
 c164: u_a4 - u_a7 - 643 y_a7_proc_0 >= 0
 c165: u_a8 - u_a4 - 671 y_a4_proc_0 >= -1240
 c166: u_a4 - u_a8 - 1119 y_a8_proc_0 >= -1265
 c167: u_a9 - u_a4 - 671 y_a4_proc_0 >= -1
 c168: u_a4 - u_a9 - 745 y_a9_proc_0 >= 0
 c169: u_a7 - u_a5 - 897 y_a5_proc_2 >= -1265
 c170: u_a7 - u_a5 - 1117 y_a5_proc_1 >= -2517
 c171: u_a5 - u_a7 - 1203 y_a7_proc_2 >= -1240
 c172: u_a5 - u_a7 - 1252 y_a7_proc_1 >= -2492
 c173: u_a8 - u_a5 - 1117 y_a5_proc_1 >= -1265
 c174: u_a5 - u_a8 - 535 y_a8_proc_1 >= -1240
 c175: u_a9 - u_a5 - 897 y_a5_proc_2 >= -1240
 c176: u_a5 - u_a9 - 728 y_a9_proc_2 >= -1265
 c177: u_a7 - u_a6 - 1153 y_a6_proc_0 >= 0
 c178: u_a6 - u_a7 - 643 y_a7_proc_0 >= -1
 c179: u_a8 - u_a6 - 1153 y_a6_proc_0 >= -1265
 c180: u_a6 - u_a8 - 1119 y_a8_proc_0 >= -1240
 c181: u_a9 - u_a6 - 1153 y_a6_proc_0 >= 0
 c182: u_a6 - u_a9 - 745 y_a9_proc_0 >= -1
 c183: u_a8 - u_a7 - 643 y_a7_proc_0 >= -1257
 c184: u_a8 - u_a7 - 1252 y_a7_proc_1 >= -1257
 c185: u_a7 - u_a8 - 1119 y_a8_proc_0 >= -1248
 c186: u_a7 - u_a8 - 535 y_a8_proc_1 >= -1248
 c187: u_a9 - u_a7 - 1203 y_a7_proc_2 >= -2504
 c188: u_a9 - u_a7 - 643 y_a7_proc_0 >= 0
 c189: u_a7 - u_a9 - 728 y_a9_proc_2 >= -2505
 c190: u_a7 - u_a9 - 745 y_a9_proc_0 >= -1
 c191: u_a9 - u_a8 - 1119 y_a8_proc_0 >= -1265
 c192: u_a8 - u_a9 - 745 y_a9_proc_0 >= -1240

Bounds
End
