benchmark/results/graph__10-1000-0.10-03_4/graph__10-1000-0.10-03_4_QuintonOs_Benders_primal_sub.txt
solution for: Quinton Bounded Benders_primal_sub
objective: 0.000311333
status: OPTIMAL_SOLUTION(2)
u_a1=1.251
u_a2=0.876
u_a3=0.655
u_a4=1.359
u_a5=0.376
u_a7=0.568
u_a8=0.601
u_a9=0.768
tau=0.000
y_a0_proc_2=0.000
y_a1_proc_1=0.000
y_a2_proc_1=0.000
y_a3_proc_2=0.000
y_a4_proc_0=0.000
y_a5_proc_2=0.000
y_a6_proc_0=0.000
y_a7_proc_0=0.000
y_a8_proc_1=0.000
y_a9_proc_0=0.000
